52
100
70	2
69	1
68	3
66	4
65	3
64	3
63	3
62	2
61	3
59	1
58	1
57	1
56	1
54	3
53	2
52	1
51	3
50	1
49	3
48	2
47	1
45	1
44	3
43	5
42	1
41	2
40	1
38	3
37	5
36	2
35	2
32	1
31	1
30	1
29	1
28	1
27	1
26	2
25	1
24	2
23	3
22	2
21	2
20	1
18	1
17	2
15	1
14	2
13	1
12	1
11	3
10	1
